500
200 200
1 140 664
2 140 409
3 140 537
4 140 831
5 139 170
6 139 634
7 139 169
8 138 522
9 138 532
10 138 571
11 138 678
12 137 428
13 137 881
14 136 731
15 136 260
16 136 295
17 136 412
18 136 900
19 135 624
20 135 502
21 134 901
22 134 123
23 133 353
24 133 74
25 133 256
26 132 881
27 132 72
28 132 263
29 132 547
30 132 771
31 131 433
32 131 746
33 131 84
34 130 30
35 130 552
36 130 37
37 129 31
38 129 728
39 129 90
40 129 307
41 129 981
42 128 486
43 128 81
44 128 722
45 128 257
46 127 236
47 127 233
48 126 274
49 126 742
50 126 425
51 125 727
52 125 893
53 125 456
54 125 613
55 125 901
56 125 92
57 125 388
58 124 196
59 124 602
60 124 555
61 124 507
62 124 152
63 123 540
64 123 126
65 122 393
66 122 482
67 122 712
68 122 21
69 122 281
70 121 278
71 121 917
72 121 786
73 121 448
74 121 955
75 120 647
76 120 240
77 120 58
78 119 239
79 119 34
80 119 252
81 119 195
82 119 270
83 119 576
84 118 688
85 118 3
86 118 167
87 117 723
88 116 905
89 116 880
90 116 196
91 116 947
92 116 889
93 116 23
94 116 631
95 115 225
96 115 111
97 115 967
98 115 927
99 115 376
100 114 423
101 114 871
102 114 255
103 113 304
104 113 144
105 113 678
106 113 778
107 113 518
108 113 111
109 113 190
110 112 630
111 112 241
112 112 521
113 112 704
114 111 677
115 111 679
116 111 557
117 111 339
118 111 207
119 110 802
120 110 939
121 110 517
122 110 626
123 110 457
124 110 70
125 110 386
126 109 304
127 109 742
128 109 56
129 109 123
130 109 706
131 109 878
132 109 104
133 108 981
134 108 719
135 108 909
136 108 878
137 108 412
138 108 662
139 108 527
140 107 801
141 107 112
142 107 952
143 107 292
144 107 93
145 106 393
146 106 441
147 105 49
148 105 748
149 105 483
150 105 541
151 104 201
152 104 384
153 103 887
154 103 566
155 103 76
156 102 736
157 102 971
158 102 826
159 102 513
160 102 274
161 102 357
162 102 977
163 101 256
164 101 583
165 101 582
166 100 574
167 100 350
168 100 300
169 99 468
170 99 319
171 99 663
172 99 949
173 99 571
174 98 20
175 98 642
176 98 572
177 98 672
178 97 225
179 97 174
180 97 370
181 97 234
182 96 213
183 96 867
184 96 848
185 96 342
186 95 295
187 95 308
188 95 10
189 94 439
190 94 186
191 94 737
192 93 0
193 93 51
194 93 247
195 93 560
196 93 543
197 92 769
198 92 881
199 92 280
200 91 632
201 91 91
202 91 361
203 91 916
204 91 556
205 91 904
206 90 1000
207 90 814
208 90 503
209 90 987
210 89 149
211 89 454
212 89 53
213 88 306
214 88 262
215 88 996
216 88 767
217 87 805
218 87 141
219 87 989
220 87 93
221 87 21
222 87 887
223 87 353
224 87 221
225 86 359
226 86 920
227 86 450
228 85 422
229 85 727
230 85 762
231 84 130
232 84 963
233 84 69
234 83 444
235 83 358
236 83 968
237 82 590
238 82 572
239 82 27
240 82 528
241 81 221
242 81 289
243 81 425
244 80 806
245 79 124
246 78 501
247 78 771
248 78 364
249 78 918
250 78 142
251 77 149
252 77 88
253 77 980
254 77 562
255 77 358
256 76 797
257 76 646
258 76 214
259 76 713
260 75 445
261 75 153
262 75 461
263 75 351
264 74 765
265 74 321
266 73 928
267 73 638
268 73 443
269 73 679
270 72 394
271 72 490
272 72 956
273 72 444
274 72 954
275 72 696
276 72 930
277 71 51
278 71 220
279 71 218
280 70 379
281 70 807
282 70 102
283 70 303
284 69 875
285 69 338
286 68 110
287 68 585
288 68 973
289 68 243
290 68 653
291 67 567
292 67 381
293 67 787
294 67 748
295 66 409
296 66 830
297 65 25
298 65 695
299 65 771
300 65 651
301 64 343
302 64 1000
303 64 671
304 64 816
305 64 551
306 63 400
307 62 387
308 62 356
309 61 316
310 61 30
311 61 747
312 61 685
313 61 96
314 61 150
315 60 952
316 60 707
317 60 369
318 59 569
319 59 95
320 59 926
321 59 777
322 58 145
323 58 952
324 57 49
325 57 944
326 57 362
327 57 785
328 56 822
329 56 123
330 55 297
331 55 846
332 55 562
333 55 370
334 55 870
335 54 281
336 54 535
337 54 66
338 54 463
339 54 785
340 53 699
341 53 199
342 53 549
343 52 194
344 52 643
345 52 814
346 51 947
347 51 331
348 51 301
349 51 888
350 50 950
351 49 187
352 49 97
353 49 561
354 48 275
355 48 30
356 48 748
357 48 231
358 48 208
359 48 581
360 48 217
361 48 292
362 47 606
363 47 396
364 47 285
365 47 725
366 46 545
367 45 268
368 45 24
369 45 538
370 45 687
371 45 72
372 45 862
373 44 425
374 44 230
375 44 179
376 44 869
377 43 217
378 43 299
379 43 931
380 43 450
381 43 145
382 43 126
383 42 191
384 42 376
385 42 992
386 42 351
387 42 674
388 41 875
389 41 440
390 41 173
391 41 378
392 41 922
393 40 704
394 40 184
395 40 337
396 40 997
397 40 343
398 40 972
399 40 470
400 39 227
401 39 795
402 39 914
403 39 992
404 39 447
405 39 188
406 38 317
407 38 930
408 38 798
409 38 510
410 37 354
411 37 343
412 37 921
413 37 129
414 37 283
415 36 472
416 36 210
417 36 790
418 36 629
419 36 652
420 36 449
421 36 503
422 35 987
423 35 464
424 35 822
425 34 455
426 34 460
427 34 731
428 34 68
429 34 856
430 33 329
431 33 985
432 33 642
433 32 862
434 32 664
435 31 488
436 31 163
437 31 968
438 30 874
439 30 267
440 30 696
441 30 444
442 29 91
443 29 620
444 29 688
445 29 58
446 29 912
447 29 857
448 29 528
449 28 885
450 28 495
451 28 778
452 28 365
453 28 135
454 27 374
455 27 636
456 27 421
457 27 176
458 27 483
459 27 918
460 26 234
461 26 723
462 26 955
463 26 731
464 26 491
465 26 734
466 25 386
467 25 444
468 25 910
469 25 45
470 25 600
471 25 793
472 25 576
473 25 797
474 24 909
475 24 23
476 24 619
477 23 550
478 23 227
479 23 448
480 23 323
481 23 791
482 22 209
483 22 303
484 22 248
485 22 64
486 22 263
487 21 776
488 21 80
489 21 715
490 21 600
491 20 757
492 20 381
493 20 716
494 20 823
495 20 781
496 20 588
497 20 900
498 20 91
499 20 345
500 20 327
